p cnf 12 26
-12 -11 -10 0
12 11 -5 0
-12 11 2 0
12 10 -4 0
-12 -8 -6 0
-12 8 -4 0
-12 8 -3 0
12 7 -2 0
-12 6 -5 0
-11 6 -2 0
10 9 5 0
-10 9 5 0
-10 -7 -1 0
10 -7 -1 0
-10 -5 1 0
9 -8 5 0
-9 5 4 0
9 -5 -2 0
8 -7 5 0
-8 7 2 0
-8 -5 2 0
7 6 -3 0
-7 -5 -1 0
-7 -4 -3 0
7 4 2 0
-5 2 1 0
